language ESSENCE' 1.0
$ minion Nodes: 1
$ minion TotalTime: 0.000396
$ Savile Row TotalTime: 0.142
letting pain_tuple2 be [8, 8]
letting pain_tuple3_Explicit be [[9], 
[9]]
letting pain_tuple1_Explicit be [[5], 
[5]]
